0 9273.84
1 9269.34
2 9202.85
3 8971.88
4 8971.88
5 8796.13
6 8782.65
7 8734.73
8 8730.04
9 8681.64
10 8665.74
11 8656.85
12 8515.96
13 8515.96
14 8470.89
15 8444.81
16 8360.76
17 8360.76
18 8311.30
19 8311.30
20 8311.30
21 8303.99
22 8303.99
23 8263.17
24 8260.32
25 8260.32
26 8260.32
27 8218.95
28 8218.95
29 8218.95
30 8218.95
31 8218.95
32 8218.95
33 8218.95
34 8218.95
35 8218.95
36 8218.95
37 8154.24
38 8154.24
39 8151.22
40 8133.09
41 8133.09
42 8115.63
43 8115.63
44 7979.62
45 7979.62
46 7979.62
47 7979.62
48 7924.44
49 7924.44
50 7894.56
51 7715.43
52 7715.43
53 7715.43
54 7698.94
55 7698.94
56 7647.65
57 7647.65
58 7647.65
59 7647.65
60 7647.65
61 7628.66
62 7628.66
63 7628.66
64 7628.66
65 7611.50
66 7611.50
67 7611.50
68 7611.50
69 7611.50
70 7611.50
71 7611.50
72 7611.50
73 7558.87
74 7558.87
75 7558.87
76 7558.87
77 7558.87
78 7558.87
79 7558.87
80 7558.87
81 7548.75
82 7530.30
83 7530.30
84 7530.30
85 7530.30
86 7529.05
87 7494.18
88 7494.18
89 7494.18
90 7494.18
91 7484.81
92 7484.81
93 7484.81
94 7484.81
95 7484.81
96 7484.81
97 7484.81
98 7474.57
99 7474.57
100 7474.57
101 7474.57
102 7474.57
103 7474.57
104 7465.36
105 7465.36
106 7465.36
107 7453.48
108 7453.48
109 7443.51
110 7443.51
111 7443.51
112 7443.51
113 7443.51
114 7411.62
115 7411.62
116 7411.62
117 7405.08
118 7405.08
119 7310.93
120 7310.93
121 7310.93
122 7310.93
123 7310.93
124 7310.93
125 7310.93
126 7310.93
127 7310.93
128 7310.93
129 7310.93
130 7310.93
131 7310.93
132 7310.93
133 7310.93
134 7310.93
135 7310.93
136 7310.93
137 7310.93
138 7309.54
139 7267.31
140 7267.31
141 7267.31
142 7267.31
143 7267.31
144 7235.66
145 7220.72
146 7220.72
147 7185.01
148 7185.01
149 7185.01
150 7185.01
151 7185.01
152 7185.01
153 7185.01
154 7185.01
155 7185.01
156 7185.01
157 7185.01
158 7185.01
159 7162.64
160 7162.64
161 7162.64
162 7162.64
163 7162.64
164 7162.64
165 7162.64
166 7089.30
167 7089.30
168 7089.30
169 7089.30
170 7089.30
171 7089.30
172 7089.30
173 7052.50
174 7042.39
175 7042.39
176 7042.39
177 7042.39
178 7042.39
179 7042.39
180 7042.39
181 7042.39
182 7004.34
183 7004.34
184 7004.34
185 7004.34
186 7004.34
187 7004.34
188 7004.34
189 7004.34
190 7004.34
191 7004.34
192 7004.34
193 7004.34
194 7004.34
195 7004.34
196 7004.34
197 7004.34
198 7004.34
199 7004.34
200 6992.94
201 6992.94
202 6992.94
203 6992.94
204 6992.94
205 6992.94
206 6980.60
207 6980.60
208 6980.60
209 6969.80
210 6969.80
211 6969.80
212 6969.80
213 6969.80
214 6969.80
215 6969.80
216 6969.80
217 6969.80
218 6969.80
219 6969.80
220 6968.48
221 6968.48
222 6943.78
223 6943.78
224 6943.78
225 6943.78
226 6943.78
227 6943.78
228 6943.78
229 6943.78
230 6927.76
231 6927.76
232 6927.76
233 6927.76
234 6927.76
235 6927.76
236 6877.42
237 6842.15
238 6842.15
239 6842.15
240 6842.15
241 6842.15
242 6842.15
243 6842.15
244 6842.15
245 6842.15
246 6842.15
247 6842.15
248 6842.15
249 6842.15
250 6842.15
251 6781.91
252 6781.91
253 6781.91
254 6781.91
255 6781.91
256 6781.91
257 6781.91
258 6781.91
259 6781.91
260 6781.91
261 6781.91
262 6779.51
263 6779.51
264 6779.51
265 6779.51
266 6779.51
267 6779.51
268 6777.91
269 6777.91
270 6777.91
271 6777.91
272 6777.91
273 6777.91
274 6777.91
275 6777.91
276 6777.91
277 6737.52
278 6711.91
279 6711.91
280 6711.91
281 6711.91
282 6711.91
283 6711.91
284 6711.91
285 6711.91
286 6711.91
287 6711.91
288 6686.17
289 6686.17
290 6686.17
291 6686.17
292 6686.17
293 6686.17
294 6686.17
295 6686.17
296 6686.17
297 6686.17
298 6686.17
299 6686.17
300 6686.17
301 6686.17
302 6686.17
303 6686.17
304 6686.17
305 6686.17
306 6686.17
307 6686.17
308 6686.17
309 6686.17
310 6686.17
311 6686.17
312 6686.17
313 6686.17
314 6686.17
315 6686.17
316 6686.17
317 6686.17
318 6686.17
319 6686.17
320 6686.17
321 6686.17
322 6686.17
323 6686.17
324 6686.17
325 6686.17
326 6686.17
327 6686.17
328 6686.17
329 6686.17
330 6686.17
331 6686.17
332 6686.17
333 6686.17
334 6686.17
335 6686.17
336 6686.17
337 6686.17
338 6686.17
339 6686.17
340 6686.17
341 6686.17
342 6686.17
343 6686.17
344 6686.17
345 6686.17
346 6686.17
347 6686.17
348 6686.16
349 6686.16
350 6686.16
351 6686.16
352 6686.16
353 6686.16
354 6686.16
355 6686.16
356 6686.16
357 6686.16
358 6686.16
359 6686.16
360 6686.16
361 6686.16
362 6686.16
363 6686.16
364 6686.16
365 6686.16
366 6686.16
367 6686.16
368 6686.16
369 6686.16
370 6686.16
371 6686.16
372 6686.16
373 6686.16
374 6686.16
375 6686.16
376 6686.16
377 6677.39
378 6672.39
379 6672.39
380 6672.39
381 6672.39
382 6672.39
383 6672.39
384 6664.96
385 6664.96
386 6656.65
387 6656.65
388 6656.65
389 6656.65
390 6656.65
391 6656.65
392 6656.65
393 6656.65
394 6656.65
395 6656.65
396 6656.65
397 6656.65
398 6656.65
399 6656.65
400 6656.65
401 6656.65
402 6656.65
403 6656.65
404 6656.65
405 6656.65
406 6656.65
407 6656.65
408 6656.65
409 6656.65
410 6656.65
411 6656.65
412 6656.65
413 6656.65
414 6656.65
415 6656.65
416 6656.65
417 6656.65
418 6656.65
419 6656.65
420 6656.65
421 6656.65
422 6656.65
423 6656.65
424 6656.65
425 6656.65
426 6656.65
427 6656.65
428 6656.65
429 6656.65
430 6656.65
431 6656.65
432 6656.65
433 6656.65
434 6656.65
435 6656.65
436 6656.65
437 6656.65
438 6656.65
439 6656.65
440 6656.65
441 6656.65
442 6656.65
443 6656.65
444 6656.65
445 6656.65
446 6656.65
447 6656.65
448 6656.65
449 6656.65
450 6656.65
451 6656.65
452 6656.65
453 6656.65
454 6656.65
455 6656.65
456 6598.27
457 6598.27
458 6598.27
459 6598.27
460 6598.27
461 6598.27
462 6598.27
463 6598.27
464 6598.27
465 6598.27
466 6598.27
467 6598.27
468 6598.27
469 6598.27
470 6580.40
471 6580.40
472 6580.40
473 6580.40
474 6580.40
475 6580.40
476 6580.40
477 6580.40
478 6580.40
479 6580.40
480 6580.40
481 6580.40
482 6580.40
483 6580.40
484 6580.40
485 6580.40
486 6562.88
487 6562.88
488 6562.88
489 6562.88
490 6562.88
491 6562.88
492 6562.88
493 6562.88
494 6562.88
495 6562.88
496 6562.88
497 6562.88
498 6562.88
499 6562.88
500 6562.88
501 6562.88
502 6562.88
503 6551.69
504 6551.69
505 6551.69
506 6551.69
507 6551.69
508 6551.69
509 6551.69
510 6551.69
511 6551.69
512 6545.92
513 6545.92
514 6545.92
515 6545.92
516 6545.92
517 6545.92
518 6545.92
519 6545.92
520 6545.92
521 6545.92
522 6545.92
523 6545.92
524 6545.92
525 6545.92
526 6545.92
527 6545.92
528 6545.92
529 6545.92
530 6545.92
531 6545.92
532 6545.92
533 6545.92
534 6545.87
535 6545.87
536 6545.87
537 6516.59
538 6515.12
539 6515.12
540 6515.12
541 6515.12
542 6515.12
543 6515.12
544 6515.12
545 6515.12
546 6515.12
547 6515.12
548 6515.12
549 6515.12
550 6515.12
551 6515.12
552 6515.12
553 6515.12
554 6515.12
555 6515.12
556 6515.12
557 6515.12
558 6515.12
559 6515.12
560 6515.12
561 6515.12
562 6515.12
563 6515.12
564 6515.12
565 6515.12
566 6515.12
567 6515.12
568 6515.12
569 6515.12
570 6515.12
571 6515.12
572 6515.12
573 6515.12
574 6515.12
575 6515.12
576 6515.12
577 6515.12
578 6515.12
579 6515.12
580 6515.12
581 6515.12
582 6512.02
583 6512.02
584 6512.02
585 6512.02
586 6512.02
587 6512.02
588 6512.02
589 6512.02
590 6512.02
591 6512.02
592 6512.02
593 6512.02
594 6512.02
595 6497.28
596 6497.28
597 6497.28
598 6496.34
599 6496.34
600 6496.34
601 6496.34
602 6496.34
603 6496.34
604 6496.34
605 6496.34
606 6496.34
607 6496.34
608 6496.34
609 6496.34
610 6496.34
611 6496.34
612 6496.34
613 6496.34
614 6496.34
615 6496.34
616 6496.34
617 6496.34
618 6496.34
619 6496.34
620 6496.34
621 6496.34
622 6496.34
623 6496.34
624 6496.34
625 6496.34
626 6496.34
627 6496.34
628 6496.34
629 6496.34
630 6496.34
631 6496.34
632 6496.34
633 6496.34
634 6496.34
635 6496.34
636 6496.34
637 6496.34
638 6496.34
639 6496.34
640 6496.34
641 6496.34
642 6484.00
643 6484.00
644 6484.00
645 6484.00
646 6484.00
647 6484.00
648 6484.00
649 6484.00
650 6484.00
651 6484.00
652 6484.00
653 6484.00
654 6471.21
655 6471.21
656 6471.21
657 6471.21
658 6471.21
659 6471.21
660 6471.21
661 6471.21
662 6471.21
663 6471.21
664 6471.21
665 6471.21
666 6471.21
667 6471.21
668 6471.21
669 6471.21
670 6471.21
671 6471.21
672 6471.21
673 6471.21
674 6471.21
675 6471.21
676 6471.21
677 6471.21
678 6471.21
679 6471.21
680 6471.21
681 6471.21
682 6471.21
683 6471.21
684 6471.21
685 6471.21
686 6471.21
687 6471.21
688 6471.21
689 6471.21
690 6471.21
691 6471.21
692 6471.21
693 6471.21
694 6471.21
695 6471.21
696 6471.21
697 6471.21
698 6471.21
699 6471.21
700 6471.21
701 6471.21
702 6471.21
703 6471.21
704 6471.21
705 6471.21
706 6469.28
707 6469.28
708 6469.28
709 6469.28
710 6469.28
711 6469.28
712 6469.28
713 6469.28
714 6469.28
715 6469.28
716 6469.28
717 6469.28
718 6469.28
719 6469.28
720 6469.28
721 6469.28
722 6469.28
723 6468.68
724 6468.68
725 6468.68
726 6468.68
727 6468.68
728 6468.68
729 6468.68
730 6468.68
731 6468.68
732 6468.68
733 6465.22
734 6465.22
735 6465.22
736 6465.22
737 6465.22
738 6445.62
739 6445.62
740 6445.62
741 6445.62
742 6445.62
743 6445.62
744 6445.62
745 6445.62
746 6445.62
747 6445.62
748 6445.62
749 6445.62
750 6445.62
751 6445.62
752 6445.62
753 6445.62
754 6445.62
755 6445.62
756 6445.62
757 6445.62
758 6445.62
759 6445.62
760 6445.62
761 6445.62
762 6445.62
763 6436.93
764 6436.93
765 6436.93
766 6436.93
767 6436.93
768 6436.93
769 6436.93
770 6436.93
771 6436.93
772 6436.93
773 6436.93
774 6436.93
775 6436.93
776 6436.93
777 6436.93
778 6436.93
779 6436.93
780 6436.93
781 6436.93
782 6436.93
783 6436.93
784 6436.93
785 6436.93
786 6436.93
787 6436.93
788 6436.93
789 6436.93
790 6436.93
791 6436.93
792 6436.93
793 6436.93
794 6436.93
795 6436.93
796 6436.93
797 6436.93
798 6436.93
799 6436.93
800 6436.93
801 6436.93
802 6436.93
803 6436.93
804 6436.93
805 6436.93
806 6436.93
807 6436.93
808 6436.93
809 6436.93
810 6436.93
811 6436.93
812 6436.93
813 6436.93
814 6436.93
815 6436.93
816 6436.93
817 6436.93
818 6436.93
819 6436.93
820 6436.93
821 6436.93
822 6436.93
823 6436.93
824 6436.93
825 6436.93
826 6436.93
827 6436.93
828 6436.93
829 6436.93
830 6436.93
831 6436.93
832 6436.93
833 6436.93
834 6436.93
835 6436.93
836 6436.93
837 6436.93
838 6436.93
839 6436.93
840 6436.93
841 6436.93
842 6436.93
843 6436.93
844 6436.93
845 6436.93
846 6436.93
847 6436.93
848 6436.93
849 6436.93
850 6436.93
851 6436.93
852 6436.93
853 6436.93
854 6436.93
855 6436.93
856 6436.93
857 6436.93
858 6436.93
859 6422.00
860 6422.00
861 6422.00
862 6422.00
863 6422.00
864 6422.00
865 6422.00
866 6422.00
867 6422.00
868 6422.00
869 6422.00
870 6420.70
871 6420.70
872 6420.70
873 6420.70
874 6420.70
875 6420.70
876 6420.70
877 6420.70
878 6420.70
879 6420.70
880 6420.70
881 6420.70
882 6420.70
883 6420.70
884 6420.70
885 6420.70
886 6420.70
887 6420.70
888 6420.70
889 6420.70
890 6420.70
891 6420.70
892 6420.70
893 6420.70
894 6420.70
895 6420.70
896 6420.70
897 6420.70
898 6420.70
899 6420.70
900 6420.70
901 6420.70
902 6420.70
903 6420.70
904 6420.70
905 6420.70
906 6420.70
907 6420.70
908 6420.70
909 6420.70
910 6420.70
911 6420.70
912 6420.70
913 6420.70
914 6420.70
915 6420.70
916 6420.70
917 6420.70
918 6420.70
919 6420.70
920 6420.70
921 6420.70
922 6420.70
923 6420.70
924 6420.70
925 6420.70
926 6420.70
927 6420.70
928 6420.70
929 6420.70
930 6420.70
931 6420.70
932 6420.70
933 6420.70
934 6420.70
935 6420.70
936 6420.70
937 6420.70
938 6420.70
939 6420.70
940 6420.70
941 6420.70
942 6420.70
943 6420.70
944 6407.75
945 6407.75
946 6407.75
947 6407.75
948 6407.75
949 6407.54
950 6407.54
951 6407.54
952 6407.54
953 6407.54
954 6407.54
955 6407.54
956 6407.54
957 6407.54
958 6407.54
959 6407.54
960 6407.54
961 6407.54
962 6407.54
963 6407.54
964 6407.54
965 6407.54
966 6407.54
967 6407.54
968 6407.54
969 6407.54
970 6407.54
971 6407.54
972 6407.54
973 6407.54
974 6407.54
975 6407.54
976 6407.54
977 6407.54
978 6407.54
979 6407.54
980 6407.54
981 6407.54
982 6407.54
983 6407.54
984 6407.54
985 6407.54
986 6407.54
987 6407.54
988 6407.54
989 6407.54
990 6407.54
991 6407.54
992 6407.54
993 6407.54
994 6407.54
995 6407.54
996 6407.54
997 6407.54
998 6407.54
999 6407.54
22 11 2 0 0 0 